Route #1: 2 36 17 49 39 25 4
Route #2: 27 30 29 41 40 11 5 33 18 45 43 38 6
Route #3: 32 1 44 28 13 50 20 19 7 26 31 10 21 37 23 48
Route #4: 35 34 9 3 14 16 46 42 47 15 12 22 24 8
Cost 5911866.000000